200
1000
627
626
618
615
614
613
609
604
603
603
600
599
595
594
591
585
580
576
571
567
565
562
559
559
555
554
553
551
548
546
543
542
539
537
536
533
533
533
530
527
525
521
520
519
519
519
519
518
518
516
509
508
499
498
494
492
489
489
482
475
462
460
450
448
443
441
440
439
438
438
436
435
433
429
427
426
424
421
420
410
409
403
403
393
391
381
378
378
374
372
366
364
364
354
352
349
349
347
346
341
339
339
336
332
331
331
325
321
320
320
318
318
315
310
302
299
298
297
296
295
293
282
281
267
261
252
252
248
246
244
233
232
228
221
217
216
214
213
210
209
208
207
202
200
200
196
193
192
190
190
188
183
183
179
179
175
171
165
152
151
142
135
134
133
132
127
126
124
121
120
116
116
109
108
107
104
104
101
95
92
91
89
86
84
83
81
72
68
67
64
60
58
52
49
47
43
38
38
37
37
